peakDumbCharging = 29600; 
Machine = anon_enum(16); 
machineSpeed = [3700,3700,3700,3700,3700,3700,3700,3700,3700,3700,3700,3700,3700,3700,3700,3700]; 
machineLoad = [3700,3700,3700,3700,3700,3700,3700,3700,3700,3700,3700,3700,3700,3700,3700,3700]; 
Car = anon_enum(43); 
demandCar = [11920,7520,8720,18480,30160,20920,4480,16360,8000,3920,3960,3360,3120,21120,5720,40,15760,7200,5440,2280,14000,5760,3000,9840,7840,6160,4720,9560,7240,13880,2920,4960,12400,9360,2440,3080,6880,6360,7080,36440,12160,6480,3400]; 
arrivalCar = [75,73,70,69,66,66,65,64,64,64,62,62,60,60,59,59,59,58,58,57,57,56,54,54,54,54,52,51,50,49,48,46,45,45,45,44,44,44,41,38,38,35,35]; 
departureCar = [80,77,74,75,78,73,68,73,68,67,65,64,63,68,62,60,67,61,65,59,62,60,57,59,57,57,55,55,53,59,51,48,50,49,47,46,47,49,45,56,44,38,37]; 
